c ---- [ banner ] ------------------------------------------------------------
c
c Kissat SAT Solver
c 
c Copyright (c) 2021-2024 Armin Biere University of Freiburg
c Copyright (c) 2019-2021 Armin Biere Johannes Kepler University Linz
c 
c Version 4.0.2 unknown
c gcc (GCC) 13.3.0 -W -Wall -O3 -DNDEBUG
c Fri Feb 21 03:57:30 PM CET 2025 Linux main1 6.6.72 x86_64
c
c ---- [ parsing ] -----------------------------------------------------------
c
c opened and reading DIMACS file:
c
c   instances/00072cf107ae1349c8c59a15c5ce4af1-unif-c1275-v300-s428434218.cnf
c
c parsed 'p cnf 300 1275' header
c closing input after reading 18365 bytes (18 KB)
c finished parsing after 0.00 seconds
c
c ---- [ solving ] -----------------------------------------------------------
c
c seconds switched rate     size/glue tier1 binary      remaining
c        MB reductions conflicts size  tier2  irredundant
c         level restarts redundant glue  trail      variables
c
c *  0.00  2 0 0 0  0 0   0   0 0.0 0 0 0 0 0%   0 1275 300 100%
c (  0.00  2 0 0 0  0 0   0   0 0.0 0 0 0 0 0%   0 1275 300 100%
c .  0.00  2 0 0 0  0 0   0   0 0.0 0 0 0 0 0%   0 1275 300 100%
c e  0.05  3 0 0 0  0 0   0   0 0.0 0 0 0 0 0%   0 1255 288 96%
c )  0.05  3 0 0 0  0 0   0   0 0.0 0 0 0 0 0%   0 1255 288 96%
c {  0.05  3 0 0 0  0 0   0   0 0.0 0 0 2 6 0%   0 1255 288 96%
c -  0.07  3 17 0 1 27 2 1000 666 1.8 15 8 6 11 40%   0 1255 288 96%
c }  0.07  3 17 1 1 27 2 1000 666 1.8 15 8 6 11 40%   0 1255 288 96%
c [  0.07  3 0 1 1 27 0 1000 666 0.0 0 0 2 6 0%   0 1255 288 96%
c B  0.07  3 17 1 1 27 3 1004 670 1.9 18 9 2 6 49%   0 1255 288 96%
c ]  0.08  3 17 2 1 27 1 1889 1510 1.8 17 9 6 12 41%   0 1255 288 96%
c {  0.08  3 17 2 1 27 2 1889 1510 1.8 15 8 6 11 40%   0 1255 288 96%
c -  0.08  3 17 2 2 27 2 2000 1555 1.8 15 8 6 11 40%   0 1255 288 96%
c }  0.10  3 16 3 2 81 2 2889 2400 1.8 15 8 6 11 40%   0 1255 288 96%
c [  0.10  3 17 3 2 81 1 2889 2400 1.8 17 9 6 12 41%   0 1255 288 96%
c W  0.10  3 17 3 2 81 1 2889 2400 1.8 17 9 6 12 41%   0 1255 288 96%
c -  0.11  3 19 3 3 81 1 3415 2608 1.6 18 11 5 14 41%   0 1255 288 96%
c ]  0.13  3 20 4 3 82 1 3993 3143 1.6 18 12 5 14 41%   0 1255 288 96%
c {  0.13  3 16 4 3 82 2 3993 3143 1.8 15 8 6 11 40%   0 1255 288 96%
c u  0.14  3 17 4 3 116 2 4122 3132 1.7 15 8 6 11 40%   0 1255 288 96%
c
c seconds  switched  rate       size/glue tier1    binary      remaining
c        MB reductions conflicts      size  tier2    irredundant
c         level restarts   redundant    glue    trail      variables
c
c v  0.14  3 17 4 3 116 2 4122 3089 1.7 15 8 6 11 40%   0 1255 288 96%
c w  0.15  4 17 4 3 116 2 4122 3056 1.7 15 8 6 11 40%   0 1255 288 96%
c -  0.18  4 18 4 4 319 3 5148 3285 1.7 15 9 4 11 40%   0 1255 288 96%
c }  0.21  4 18 5 4 490 3 6346 4455 1.6 15 9 4 11 40%   0 1255 288 96%
c [  0.21  4 20 5 4 490 1 6346 4455 1.6 18 12 5 14 41%   0 1255 288 96%
c I  0.21  4 20 5 4 490 1 6346 4455 1.6 18 12 5 14 41%   0 1255 288 96%
c -  0.23  4 19 5 5 490 1 7148 4291 1.6 17 11 5 14 41%   0 1255 288 96%
c -  0.28  4 18 5 6 492 1 9384 5125 1.6 17 11 4 13 41%   0 1255 288 96%
c ]  0.28  4 18 6 6 492 1 9396 5137 1.6 17 11 4 13 41%   0 1255 288 96%
c {  0.28  4 18 6 6 492 3 9396 5137 1.6 15 9 4 11 40%   0 1255 288 96%
c o  0.30  4 18 6 6 508 3 10074 5782 1.7 15 9 4 11 40%   0 1255 288 96%
c -  0.36  5 17 6 7 528 3 11834 5995 1.7 15 9 3 11 40%   0 1255 288 96%
c u  0.39  4 17 6 7 535 2 12694 6472 1.8 15 8 3 11 40%   0 1255 288 96%
c v  0.40  4 17 6 7 535 2 12694 6368 1.8 15 8 3 11 40%   0 1255 288 96%
c w  0.41  4 17 6 7 535 2 12694 6299 1.8 15 8 3 11 40%   0 1255 288 96%
c }  0.47  4 16 7 7 551 2 13465 7048 1.8 15 8 3 11 41%   0 1255 288 96%
c [  0.47  4 18 7 7 551 1 13465 7048 1.6 17 11 4 13 41%   0 1255 288 96%
c B  0.47  4 18 7 7 551 1 13465 7048 1.6 17 11 4 13 41%   0 1255 288 96%
c -  0.50  4 18 7 8 551 1 14479 6246 1.6 17 11 4 13 40%   0 1255 288 96%
c -  0.58  5 18 7 9 553 1 17307 6409 1.6 17 11 4 13 40%   0 1255 288 96%
c
c seconds  switched  rate        size/glue  tier1    binary      remaining
c        MB reductions conflicts       size   tier2    irredundant
c         level restarts    redundant     glue    trail      variables
c
c ]  0.60  5 18 8 9 554 1 18160 7155 1.6 17 11 4 13 40%   0 1255 288 96%
c {  0.60  5 16 8 9 554 2 18160 7155 1.8 15 8 3 11 41%   0 1255 288 96%
c -  0.69  5 16 8 10 809 3 20309 6941 1.8 15 9 3 10 40%   0 1255 288 96%
c o  0.69  5 16 8 10 814 3 20425 7045 1.7 15 9 3 10 40%   0 1255 288 96%
c e  0.70  5 16 8 10 815 3 20606 7218 1.7 15 9 3 10 40%   0 1254 287 96%
c ^  0.70  5 16 8 10 815 3 20606 7218 1.7 15 9 3 10 40%   0 1254 287 96%
c -  0.81  5 16 8 11 1058 3 23472 7759 1.7 15 9 2 10 40%   0 1254 287 96%
c }  0.84  5 16 9 11 1058 2 24319 8495 1.7 15 9 2 10 40%   0 1254 287 96%
c [  0.84  5 18 9 11 1058 1 24319 8495 1.6 17 11 4 13 40%   0 1254 287 96%
c W  0.84  5 18 9 11 1058 1 24319 8495 1.6 17 11 4 13 40%   0 1254 287 96%
c u  0.90  5 19 9 11 1059 1 26005 9730 1.5 18 12 4 14 41%   0 1254 287 96%
c v  0.91  5 19 9 11 1059 1 26005 9624 1.5 18 12 4 14 41%   0 1254 287 96%
c w  0.92  6 19 9 11 1059 1 26005 9564 1.5 18 12 4 14 41%   0 1254 287 96%
c -  0.96  5 19 9 12 1060 1 26788 7503 1.6 18 12 4 14 41%   0 1254 287 96%
c -  1.06  6 18 9 13 1062 1 30253 7612 1.6 18 11 3 13 42%   0 1254 287 96%
c O  1.11  6 18 9 13 1063 1 31847 9045 1.6 18 11 3 13 42%   0 1254 287 96%
c ]  1.14  5 18 10 13 1064 1 32992 10114 1.6 18 11 3 13 42%   0 1254 287 96%
c {  1.14  5 16 10 13 1064 2 32992 10114 1.7 15 9 2 10 40%   0 1254 287 96%
c -  1.19  6 16 10 14 1245 3 33858 8180 1.7 15 9 2 10 40%   0 1254 287 96%
c -  1.37  6 17 10 15 1731 3 37599 8938 1.7 15 9 2 10 40%   0 1254 287 96%
c
c seconds   switched    rate         size/glue tier1    binary      remaining
c        MB   reductions  conflicts        size  tier2    irredundant
c         level    restarts     redundant    glue    trail      variables
c
c o  1.50  6 17 10 15 1969 3 40428 11651 1.7 15 9 2 10 40%   0 1254 287 96%
c ^  1.56  6 17 10 15 2150 3 41214 12427 1.7 15 9 2 10 40%   0 1254 287 96%
c -  1.58  6 17 10 16 2211 3 41471 9688 1.7 15 9 2 10 40%   0 1254 287 96%
c }  1.59  6 17 11 16 2250 3 41619 9835 1.7 15 9 2 10 40%   0 1254 287 96%
c [  1.59  6 18 11 16 2250 1 41619 9835 1.6 18 11 3 13 42%   0 1254 287 96%
c B  1.59  6 18 11 16 2250 1 41619 9835 1.6 18 11 3 13 42%   0 1254 287 96%
c u  1.71  6 18 11 16 2252 1 44346 11382 1.6 18 11 3 13 42%   0 1254 287 96%
c v  1.73  6 18 11 16 2252 1 44346 11312 1.6 18 11 3 13 42%   0 1254 287 96%
c w  1.75  6 18 11 16 2252 1 44346 11149 1.6 18 11 3 13 42%   0 1254 287 96%
c -  1.79  6 18 11 17 2252 1 45473 8692 1.6 18 11 3 13 42%   0 1254 287 96%
c -  1.93  6 18 11 18 2255 1 49596 8802 1.6 18 11 3 13 42%   0 1254 287 96%
c -  2.09  6 18 11 19 2256 1 53838 9182 1.6 18 11 3 13 42%   0 1254 287 96%
c W  2.09  5 18 11 19 2256 1 53841 9185 1.6 18 11 3 13 42%   0 1254 287 96%
c ]  2.17  5 18 12 19 2259 1 56264 11423 1.6 18 11 3 13 42%   0 1254 287 96%
c {  2.17  5 17 12 19 2259 3 56264 11423 1.7 15 9 2 10 40%   0 1254 287 96%
c -  2.26  6 17 12 20 2334 3 58198 9807 1.7 15 9 2 10 40%   0 1254 287 96%
c -  2.49  6 17 12 21 2714 3 62670 10826 1.7 15 9 2 10 40%   0 1254 287 96%
c -  2.79  6 17 12 22 3478 3 67253 11544 1.6 15 9 2 10 40%   0 1254 287 96%
c }  2.81  6 17 13 22 3481 3 67743 12000 1.6 15 9 2 10 40%   0 1254 287 96%
c [  2.81  6 18 13 22 3481 1 67743 12000 1.6 18 11 3 13 42%   0 1254 287 96%
c
c seconds   switched    rate         size/glue  tier1    binary      remaining
c        MB   reductions  conflicts        size   tier2    irredundant
c         level    restarts     redundant     glue    trail      variables
c
c u  2.85  5 18 13 22 3481 1 67963 11068 1.6 18 11 3 13 42%   0 1254 287 96%
c v  2.88  6 18 13 22 3481 1 67963 10501 1.6 18 11 3 13 42%   0 1254 287 96%
c w  2.89  6 18 13 22 3481 1 67963 10492 1.6 18 11 3 13 42%   0 1254 287 96%
c I  3.10  6 18 13 22 3481 1 68747 11246 1.6 18 11 3 13 42%   0 1254 287 96%
c -  3.23  6 17 13 23 3484 1 71944 10312 1.6 17 11 3 13 42%   0 1254 287 96%
c -  3.41  6 17 13 24 3487 1 76740 10582 1.6 17 11 3 13 42%   0 1254 287 96%
c -  3.58  6 17 13 25 3489 1 81638 10560 1.6 17 11 3 12 41%   0 1254 287 96%
c ^  3.73  6 17 13 25 3492 1 85892 14367 1.6 17 11 3 12 41%   0 1254 287 96%
c o  3.73  6 17 13 25 3492 1 85892 14367 1.6 17 11 3 12 41%   0 1254 287 96%
c ]  3.75  6 17 14 25 3493 1 86384 14825 1.6 17 11 3 12 41%   0 1254 287 96%
c {  3.75  6 17 14 25 3493 3 86384 14825 1.6 15 9 2 10 40%   0 1254 287 96%
c -  3.77  6 17 14 26 3523 3 86638 11233 1.6 15 9 2 10 40%   0 1254 287 96%
c -  4.06  7 17 14 27 3952 3 91737 12027 1.6 15 9 2 10 40%   0 1254 287 96%
c -  4.36  7 17 14 28 4381 3 96933 12728 1.6 15 9 2 10 40%   0 1254 287 96%
c u  4.38  6 17 14 28 4392 3 97020 12032 1.6 15 9 2 10 40%   0 1254 287 96%
c v  4.41  7 17 14 28 4392 3 97020 11575 1.6 15 9 2 10 40%   0 1254 287 96%
c w  4.42  7 17 14 28 4392 3 97020 11554 1.6 15 9 2 10 40%   0 1254 287 96%
c }  4.64  6 17 15 28 4612 3 101099 15464 1.6 15 9 2 10 40%   0 1254 287 96%
c [  4.64  6 17 15 28 4612 1 101099 15464 1.6 17 11 3 12 41%   0 1254 287 96%
c B  4.64  6 17 15 28 4612 1 101099 15464 1.6 17 11 3 12 41%   0 1254 287 96%
c
c seconds   switched    rate          size/glue  tier1    binary      remaining
c        MB   reductions  conflicts         size   tier2    irredundant
c         level    restarts      redundant     glue    trail      variables
c
c -  4.69  6 17 15 29 4613 1 102224 12033 1.6 17 11 3 12 41%   0 1254 287 96%
c -  4.90  6 17 15 30 4617 1 107609 11391 1.6 17 11 3 12 42%   0 1254 287 96%
c -  5.11  7 17 15 31 4618 1 113086 10836 1.6 17 11 3 12 42%   0 1254 287 96%
c -  5.31  6 17 15 32 4623 1 118654 11274 1.6 18 11 3 12 42%   0 1254 287 96%
c W  5.44  6 17 15 32 4625 1 122010 14274 1.6 18 11 3 12 42%   0 1254 287 96%
c -  5.55  6 17 15 33 4625 1 124310 11823 1.6 18 11 3 12 42%   0 1254 287 96%
c ]  5.57  6 17 16 33 4625 1 124929 12400 1.6 18 11 3 12 42%   0 1254 287 96%
c {  5.57  6 17 16 33 4625 3 124929 12400 1.6 15 9 2 10 40%   0 1254 287 96%
c o  5.66  6 17 16 33 4671 3 126810 14171 1.7 15 9 2 10 40%   0 1254 287 96%
c -  5.87  6 17 16 34 5083 3 130055 13400 1.6 15 9 2 10 40%   0 1254 287 96%
c u  6.00  6 17 16 34 5133 3 131724 13824 1.6 15 9 2 10 40%   0 1254 287 96%
c v  6.06  6 17 16 34 5133 3 131724 13727 1.6 15 9 2 10 40%   0 1254 287 96%
c w  6.08  6 17 16 34 5133 3 131724 13522 1.6 15 9 2 10 40%   0 1254 287 96%
c -  6.34  6 17 16 35 5460 3 135888 13562 1.6 15 9 2 10 40%   0 1254 287 96%
c -  6.71  6 17 16 36 5894 3 141804 14390 1.6 15 9 2 9 40%   0 1254 287 96%
c }  6.81  6 17 17 36 6123 3 143268 15822 1.6 15 9 2 9 40%   0 1254 287 96%
c [  6.81  6 17 17 36 6123 1 143268 15822 1.6 18 11 3 12 42%   0 1254 287 96%
c O  6.95  6 17 17 36 6125 1 146235 18520 1.6 18 11 3 12 42%   0 1254 287 96%
c -  7.03  6 17 17 37 6126 1 147805 14710 1.6 18 11 3 12 42%   0 1254 287 96%
c -  7.30  6 17 17 38 6129 1 153888 14875 1.6 17 11 3 12 42%   0 1254 287 96%
c
c seconds   switched    rate          size/glue  tier1    binary      remaining
c        MB   reductions  conflicts         size   tier2    irredundant
c         level    restarts      redundant     glue    trail      variables
c
c e  7.47  6 17 17 38 6132 1 157853 18502 1.6 17 11 3 12 42%   0 1277 280 93%
c ^  7.47  6 17 17 38 6132 1 157853 18502 1.6 17 11 3 12 42%   0 1277 280 93%
c -  7.58  6 17 17 39 6133 1 160053 14155 1.6 17 11 3 12 42%   0 1277 280 93%
c -  7.86  7 17 17 40 6136 1 166297 13852 1.6 17 11 3 12 42%   0 1277 280 93%
c ]  8.00  7 17 18 40 6137 1 169691 16812 1.6 17 11 3 12 42%   0 1277 280 93%
c {  8.00  7 17 18 40 6137 3 169691 16812 1.6 15 9 2 9 40%   0 1277 280 93%
c u  8.24  7 17 18 40 6214 3 172281 17901 1.6 15 9 2 9 40%   0 1277 280 93%
c v  8.31  7 17 18 40 6214 3 172281 17752 1.6 15 9 2 9 40%   0 1277 280 93%
c w  8.35  9 17 18 40 6214 3 172281 17419 1.6 15 9 2 9 40%   0 1277 280 93%
c -  8.38  8 17 18 41 6219 3 172621 12967 1.6 15 9 2 9 40%   0 1277 280 93%
c o  8.57  8 16 18 41 6245 3 177024 16996 1.7 15 9 2 9 40%   0 1277 280 93%
c -  8.71  8 16 18 42 6318 3 179024 15021 1.7 15 9 2 9 40%   0 1277 280 93%
c -  9.10  8 16 18 43 6382 2 185505 16354 1.7 15 9 2 9 40%   0 1277 280 93%
c }  9.61  8 16 19 43 6584 2 192036 22447 1.7 15 9 2 9 40%   0 1277 280 93%
c [  9.61  8 17 19 43 6584 1 192036 22447 1.6 17 11 3 12 42%   0 1277 280 93%
c B  9.61  8 17 19 43 6584 1 192036 22447 1.6 17 11 3 12 42%   0 1277 280 93%
c -  9.62  8 17 19 44 6584 1 192063 17332 1.6 17 11 3 12 42%   0 1277 280 93%
c -  9.94  8 17 19 45 6589 1 198696 16281 1.6 18 11 3 12 42%   0 1277 280 93%
c - 10.28  8 17 19 46 6592 1 205405 14567 1.6 18 11 3 12 42%   0 1277 280 93%
c - 10.61  8 17 19 47 6596 1 212187 14923 1.6 18 11 2 12 42%   0 1277 280 93%
c
c seconds   switched    rate          size/glue  tier1    binary      remaining
c        MB   reductions  conflicts         size   tier2    irredundant
c         level    restarts      redundant     glue    trail      variables
c
c u 11.01  7 17 19 47 6598 1 218665 19564 1.6 18 11 2 12 42%   0 1277 280 93%
c v 11.10  7 17 19 47 6598 1 218665 18811 1.6 18 11 2 12 42%   0 1277 280 93%
c w 11.15  9 17 19 47 6598 1 218665 17310 1.6 18 11 2 12 42%   0 1277 280 93%
c - 11.69  9 17 19 48 6598 1 219042 13604 1.6 18 11 2 12 42%   0 1277 280 93%
c W 11.92  8 17 19 48 6598 1 223488 17495 1.6 18 11 2 12 42%   0 1277 280 93%
c - 12.04  8 17 19 49 6600 1 225970 14211 1.6 18 11 2 12 42%   0 1277 280 93%
c ] 12.09  8 17 20 49 6601 1 227198 15322 1.6 18 11 2 12 42%   0 1277 280 93%
c { 12.09  8 16 20 49 6601 2 227198 15322 1.7 15 9 2 9 40%   0 1277 280 93%
c - 12.62  8 16 20 50 7365 2 232972 15126 1.7 15 9 2 9 40%   0 1277 280 93%
c o 12.89  8 16 20 50 7695 2 237041 18878 1.7 15 9 2 9 40%   0 1277 280 93%
c - 13.09  8 16 20 51 7798 2 240043 16957 1.7 15 9 2 9 40%   0 1277 280 93%
c - 13.66  8 16 20 52 8493 3 247185 18157 1.7 15 9 2 9 40%   0 1277 280 93%
c } 14.30  8 16 21 52 9359 3 253937 24605 1.6 15 9 2 9 40%   0 1277 280 93%
c [ 14.30  8 17 21 52 9359 1 253937 24605 1.6 18 11 2 12 42%   0 1277 280 93%
c - 14.34  8 17 21 53 9359 1 254396 18804 1.6 18 11 2 12 42%   0 1277 280 93%
c I 14.63  8 17 21 53 9362 1 258839 22896 1.6 18 11 2 12 42%   0 1277 280 93%
c e 14.69  8 17 21 53 9363 1 259776 23717 1.6 18 11 2 12 42%   0 1394 261 87%
c ^ 14.69  8 17 21 53 9363 1 259776 23717 1.6 18 11 2 12 42%   0 1394 261 87%
c - 14.81  8 17 21 54 9364 1 261676 16802 1.6 18 11 2 12 42%   0 1394 261 87%
c - 15.22  8 17 21 55 9368 1 269024 18066 1.6 18 11 2 12 42%   0 1394 261 87%
c
c seconds   switched    rate          size/glue  tier1    binary      remaining
c        MB   reductions  conflicts         size   tier2    irredundant
c         level    restarts      redundant     glue    trail      variables
c
c u 15.42  8 16 21 55 9369 1 271168 18760 1.6 18 11 2 12 42%   0 1394 261 87%
c v 15.51  8 16 21 55 9369 1 271168 17874 1.6 18 11 2 12 42%   0 1394 261 87%
c w 15.55  8 16 21 55 9369 1 271168 16764 1.6 18 11 2 12 42%   0 1394 261 87%
c - 15.84  8 16 21 56 9372 1 276440 16769 1.6 17 11 2 12 42%   0 1394 261 87%
c - 16.24  8 16 21 57 9373 1 283923 18058 1.6 17 11 2 11 42%   0 1394 261 87%
c - 16.71  8 16 21 58 9377 1 291472 19345 1.7 17 10 2 11 42%   0 1394 261 87%
c ] 16.98  8 16 22 58 9380 1 296363 23888 1.7 17 10 2 11 42%   0 1394 261 87%
c { 16.98  8 16 22 58 9380 3 296363 23888 1.6 15 9 2 9 40%   0 1394 261 87%
c - 17.23  8 16 22 59 9428 3 299090 20554 1.6 15 9 2 9 40%   0 1394 261 87%
c - 17.90  9 16 22 60 9544 2 306771 21022 1.7 15 9 2 9 40%   0 1394 261 87%
c o 17.93  9 16 22 60 9549 2 307403 21615 1.7 15 9 2 9 40%   0 1394 261 87%
c - 18.56  9 15 22 61 9712 2 314516 21356 1.7 15 9 2 9 40%   0 1394 261 87%
c - 19.27  9 15 22 62 9987 2 322326 21697 1.7 15 9 2 9 40%   0 1394 261 87%
c } 19.73  9 15 23 62 10083 2 327879 26795 1.7 15 9 2 9 40%   0 1394 261 87%
c [ 19.73  9 16 23 62 10083 1 327879 26795 1.7 17 10 2 11 42%   0 1394 261 87%
c B 19.73  9 16 23 62 10083 1 327879 26795 1.7 17 10 2 11 42%   0 1394 261 87%
c u 19.92  9 16 23 62 10084 1 329046 26371 1.7 17 10 2 11 42%   0 1394 261 87%
c v 20.07  9 16 23 62 10084 1 329046 26075 1.7 17 10 2 11 42%   0 1394 261 87%
c w 20.11  9 16 23 62 10084 1 329046 25970 1.7 17 10 2 11 42%   0 1394 261 87%
c - 20.18  9 16 23 63 10085 1 330200 19887 1.7 17 10 2 11 42%   0 1394 261 87%
c
c seconds   switched     rate          size/glue  tier1    binary      remaining
c        MB   reductions   conflicts         size   tier2    irredundant
c         level    restarts       redundant     glue    trail      variables
c
c - 20.64  9 16 23 64 10089 1 338137 18899 1.7 17 10 2 11 42%   0 1394 261 87%
c - 21.07  9 16 23 65 10094 1 346137 17994 1.7 17 10 2 11 42%   0 1394 261 87%
c - 21.49  9 15 23 66 10097 1 354200 18469 1.7 17 10 2 11 42%   0 1394 261 87%
c - 21.93  9 15 23 67 10099 1 362324 20042 1.7 17 10 2 11 42%   0 1394 261 87%
c - 22.45  9 15 23 68 10104 1 370511 20928 1.7 17 10 2 11 42%   0 1394 261 87%
c W 22.57  9 15 23 68 10104 1 371590 21885 1.7 17 10 2 11 42%   0 1394 261 87%
c ] 22.94  9 15 24 68 10108 1 377999 27782 1.7 17 10 2 11 43%   0 1394 261 87%
c { 22.94  9 15 24 68 10108 2 377999 27782 1.7 15 9 2 9 40%   0 1394 261 87%
c - 23.05  9 15 24 69 10215 2 378757 20570 1.7 15 9 2 9 40%   0 1394 261 87%
c - 23.77  9 15 24 70 10804 2 387065 20914 1.7 15 9 2 9 40%   0 1394 261 87%
c o 23.80  9 15 24 70 10878 2 387410 21245 1.7 15 9 2 9 40%   0 1394 261 87%
c e 24.36  9 15 24 70 11712 2 392600 26261 1.6 15 9 2 9 40%   0 1592 245 82%
c s 24.37  9 15 24 70 11712 2 392600 26261 1.6 15 9 2 9 40%   0 1591 245 82%
c ! 24.37  9 15 24 70 11712 2 392600 26261 1.6 15 9 2 9 40%   0 1591 245 82%
c u 24.56  9 15 24 70 11839 2 393192 17047 1.6 15 9 2 9 40%   0 1591 245 82%
c v 24.70  9 15 24 70 11839 2 393192 15693 1.6 15 9 2 9 40%   0 1591 245 82%
c w 24.75  9 15 24 70 11839 2 393192 15587 1.6 15 9 2 9 40%   0 1591 245 82%
c - 24.93  8 15 24 71 12134 2 395431 13520 1.6 15 9 2 9 40%   0 1591 245 82%
c - 25.50  8 16 24 72 12994 2 403858 16132 1.6 15 9 2 9 41%   0 1591 245 82%
c - 26.14  8 16 24 73 13708 2 412344 18687 1.6 15 9 2 9 41%   0 1591 245 82%
c
c seconds   switched     rate          size/glue tier1   binary      remaining
c        MB   reductions   conflicts         size  tier2   irredundant
c         level    restarts       redundant    glue   trail      variables
c
c } 26.32  8 16 25 73 13942 2 414676 20871 1.6 15 9 2 9 41%   0 1591 245 82%
c [ 26.32  8 15 25 73 13942 1 414676 20871 1.7 17 10 2 11 43%   0 1591 245 82%
c O 26.58  8 16 25 73 13945 1 419751 25627 1.7 17 10 2 11 43%   0 1591 245 82%
c - 26.65  8 16 25 74 13947 1 420888 19192 1.7 17 10 2 11 43%   0 1591 245 82%
c - 27.12  8 16 25 75 13951 1 429492 17679 1.6 17 11 2 11 43%   0 1591 245 82%
c - 27.60  8 16 25 76 13955 1 438153 17374 1.6 17 10 2 11 43%   0 1591 245 82%
c - 28.04  8 16 25 77 13956 1 446872 19314 1.6 17 10 2 11 42%   0 1591 245 82%
c - 28.51  8 15 25 78 13962 1 455647 20411 1.6 17 10 2 11 42%   0 1591 245 82%
c u 28.98  8 15 25 78 13966 1 462136 24479 1.6 17 10 2 11 42%   0 1591 245 82%
c v 29.15  8 15 25 78 13966 1 462136 22997 1.6 17 10 2 11 42%   0 1591 245 82%
c w 29.21  8 15 25 78 13966 1 462136 21720 1.6 17 10 2 11 42%   0 1591 245 82%
c - 29.34  8 15 25 79 13967 1 464479 17294 1.6 17 10 2 11 43%   0 1591 245 82%
c B 29.73  8 15 25 79 13971 1 472539 24234 1.6 17 10 2 11 43%   0 1591 245 82%
c - 29.78  8 15 25 80 13971 1 473367 17488 1.6 17 10 2 11 43%   0 1591 245 82%
c ] 29.94  8 16 26 80 13971 1 477323 20996 1.6 17 11 2 11 43%   0 1591 245 82%
c { 29.94  8 16 26 80 13971 2 477323 20996 1.6 15 9 2 9 41%   0 1591 245 82%
c o 29.94  8 16 26 80 13978 2 477411 21082 1.6 15 9 2 9 41%   0 1591 245 82%
c - 30.39  8 16 26 81 14427 2 482311 18553 1.6 15 9 2 9 41%   0 1591 245 82%
c - 31.10  8 16 26 82 15084 2 491312 19784 1.6 15 9 1 9 41%   0 1591 245 82%
c - 31.83  8 16 26 83 15782 2 500367 21032 1.6 15 9 1 9 41%   0 1591 245 82%
c
c seconds   switched     rate          size/glue tier1   binary      remaining
c        MB   reductions   conflicts         size  tier2   irredundant
c         level    restarts       redundant    glue   trail      variables
c
c - 32.60  8 16 26 84 16475 2 509479 21605 1.6 15 9 1 9 41%   0 1591 245 82%
c - 33.21  8 15 26 85 16651 2 518645 22401 1.6 15 9 1 9 41%   0 1591 245 82%
c } 33.30  8 15 27 85 16812 2 519541 23275 1.6 15 9 1 9 41%   0 1591 245 82%
c [ 33.30  8 16 27 85 16812 1 519541 23275 1.6 17 11 2 11 43%   0 1591 245 82%
c - 33.83  9 15 27 86 16818 1 527864 22119 1.6 17 11 2 11 43%   0 1591 245 82%
c W 34.03  9 15 27 86 16818 1 530123 24032 1.6 17 10 2 11 43%   0 1591 245 82%
c - 34.44  9 16 27 87 16823 1 537137 20078 1.6 17 11 2 11 43%   0 1591 245 82%
c u 34.54  9 16 27 87 16823 1 537441 18480 1.6 17 11 2 11 43%   0 1591 245 82%
c v 34.79  9 16 27 87 16823 1 537441 16921 1.6 17 11 2 11 43%   0 1591 245 82%
c w 34.86  9 16 27 87 16823 1 537441 16861 1.6 17 11 2 11 43%   0 1591 245 82%
c - 36.44 12 15 27 88 16826 1 546464 17031 1.6 17 11 2 11 43%   0 1591 245 82%
c - 36.93 12 15 27 89 16829 1 555844 18856 1.6 17 10 2 11 43%   0 1591 245 82%
c - 37.45 12 15 27 90 16834 1 565278 20373 1.6 17 10 2 11 43%   0 1591 245 82%
c - 37.94 12 15 27 91 16840 1 574764 20508 1.6 17 10 2 11 43%   0 1591 245 82%
c - 38.37 12 15 27 92 16841 1 584303 19785 1.6 17 10 2 11 43%   0 1591 245 82%
c ] 38.64 12 15 28 92 16842 1 589452 24241 1.6 17 10 2 11 43%   0 1591 245 82%
c { 38.64 12 15 28 92 16842 2 589452 24241 1.6 15 9 1 9 41%   0 1591 245 82%
c o 38.64 12 15 28 92 16855 2 589510 24295 1.6 15 9 1 9 41%   0 1591 245 82%
c - 38.93 12 15 28 93 16926 2 593895 20803 1.6 15 9 1 9 41%   0 1591 245 82%
c - 39.67 12 15 28 94 17379 2 603538 22935 1.6 15 9 1 9 41%   0 1591 245 82%
c
c seconds   switched     rate          size/glue tier1   binary      remaining
c        MB   reductions   conflicts         size  tier2   irredundant
c         level    restarts       redundant    glue   trail      variables
c
c - 40.37 12 15 28 95 17572 2 613233 23663 1.6 15 9 1 9 41%   0 1591 245 82%
c u 41.00 12 15 28 95 18190 2 619225 27901 1.6 15 9 1 9 41%   0 1591 245 82%
c v 41.13 12 15 28 95 18190 2 619225 27045 1.6 15 9 1 9 41%   0 1591 245 82%
c w 41.18 12 15 28 95 18190 2 619225 26743 1.6 15 9 1 9 41%   0 1591 245 82%
c - 41.53 12 15 28 96 18482 2 622981 21870 1.6 15 9 1 9 41%   0 1591 245 82%
c - 42.54 12 15 28 97 19531 2 632778 23559 1.6 15 9 2 9 41%   0 1591 245 82%
c } 42.92 12 15 29 97 19879 2 637590 27906 1.6 15 9 2 9 41%   0 1591 245 82%
c [ 42.92 12 15 29 97 19879 1 637590 27906 1.6 17 10 2 11 43%   0 1591 245 82%
c I 42.92 12 15 29 97 19879 1 637590 27906 1.6 17 10 2 11 43%   0 1591 245 82%
c - 43.24 12 15 29 98 19882 1 642626 24364 1.6 17 10 2 11 43%   0 1591 245 82%
c - 43.76 12 15 29 99 19888 1 652525 24329 1.6 17 10 2 11 43%   0 1591 245 82%
c - 44.31 12 15 29 100 19893 1 662477 23851 1.6 17 10 2 11 43%   0 1591 245 82%
c - 44.89 12 15 29 101 19896 1 672477 23466 1.6 17 10 2 11 43%   0 1591 245 82%
c - 45.47 12 15 29 102 19900 1 682526 23467 1.6 17 10 2 11 43%   0 1591 245 82%
c - 46.06 12 15 29 103 19907 1 692625 24743 1.6 17 10 2 11 43%   0 1591 245 82%
c - 46.65 12 15 29 104 19908 1 702773 25964 1.6 17 10 2 11 43%   0 1591 245 82%
c B 46.78 12 15 29 104 19909 1 705272 28045 1.6 17 10 2 11 44%   0 1591 245 82%
c o 46.78 12 15 29 104 19909 1 705272 28045 1.6 17 10 2 11 44%   0 1591 245 82%
c u 47.04 12 15 29 104 19909 1 707568 28598 1.6 17 10 2 11 44%   0 1591 245 82%
c v 47.22 12 15 29 104 19909 1 707568 27184 1.6 17 10 2 11 44%   0 1591 245 82%
c
c seconds   switched      rate          size/glue  tier1    binary      remaining
c        MB   reductions    conflicts         size   tier2    irredundant
c         level     restarts       redundant     glue    trail      variables
c
c w 47.29 12 15 29 104 19909 1 707568 26146 1.6 17 10 2 11 44%   0 1591 245 82%
c ] 47.43 12 15 30 104 19909 1 709896 28279 1.6 17 10 2 11 44%   0 1591 245 82%
c { 47.43 12 15 30 104 19909 2 709896 28279 1.6 15 9 2 9 41%   0 1591 245 82%
c - 47.72 12 15 30 105 20061 2 712971 23533 1.6 15 9 2 9 41%   0 1591 245 82%
c - 48.62 12 15 30 106 20646 2 723217 23713 1.6 15 9 1 9 41%   0 1591 245 82%
c - 49.52 12 15 30 107 21227 2 733513 25209 1.6 15 9 1 9 41%   0 1591 245 82%
c - 50.62 12 15 30 108 22192 2 743858 25594 1.6 15 9 1 9 42%   0 1591 245 82%
c - 51.61 12 15 30 109 22847 2 754251 25967 1.6 15 9 1 9 42%   0 1591 245 82%
c } 52.49 12 15 31 109 23362 2 764330 34694 1.6 14 9 1 9 41%   0 1591 245 82%
c [ 52.49 12 15 31 109 23362 1 764330 34694 1.6 17 10 2 11 44%   0 1591 245 82%
c - 52.52 12 15 31 110 23362 1 764692 26524 1.6 17 10 2 11 44%   0 1591 245 82%
c - 53.19 12 15 31 111 23368 1 775181 26380 1.6 16 10 2 11 44%   0 1591 245 82%
c W 53.56 12 15 31 111 23370 1 778247 28982 1.6 16 10 2 11 44%   0 1591 245 82%
c - 54.00 12 15 31 112 23375 1 785716 25252 1.6 16 10 2 11 43%   0 1591 245 82%
c - 54.63 12 15 31 113 23376 1 796299 23916 1.6 16 10 2 11 43%   0 1591 245 82%
c u 55.18 12 14 31 113 23381 1 802588 26429 1.6 16 10 2 11 43%   0 1591 245 82%
c v 55.52 12 14 31 113 23381 1 802588 23282 1.6 16 10 2 11 43%   0 1591 245 82%
c w 55.61 12 14 31 113 23381 1 802588 20857 1.6 16 10 2 11 43%   0 1591 245 82%
c - 55.85 12 14 31 114 23383 1 806929 17447 1.6 16 10 2 10 43%   0 1591 245 82%
c - 56.38 12 14 31 115 23389 1 817606 20454 1.6 16 10 2 10 43%   0 1591 245 82%
c
c seconds   switched      rate          size/glue  tier1    binary      remaining
c        MB   reductions    conflicts         size   tier2    irredundant
c         level     restarts       redundant     glue    trail      variables
c
c - 56.88 12 14 31 116 23391 1 828330 21019 1.6 16 10 2 10 44%   0 1591 245 82%
c - 57.48 12 14 31 117 23392 1 839100 20156 1.6 16 10 2 10 44%   0 1591 245 82%
c - 58.07 12 14 31 118 23395 1 849916 22270 1.6 16 10 2 10 44%   0 1591 245 82%
c O 58.43 12 14 31 118 23399 1 856675 27983 1.6 16 10 2 10 44%   0 1591 245 82%
c o 58.43 12 14 31 118 23399 1 856675 27983 1.6 16 10 2 10 44%   0 1591 245 82%
c - 58.66 12 14 31 119 23402 1 860779 23079 1.6 16 10 2 10 44%   0 1591 245 82%
c ] 58.76 12 14 32 119 23403 1 862790 24860 1.6 16 10 2 10 44%   0 1591 245 82%
c { 58.76 12 15 32 119 23403 2 862790 24860 1.6 14 9 1 9 41%   0 1591 245 82%
c - 59.62 12 15 32 120 24137 2 871687 23377 1.6 14 9 1 8 42%   0 1591 245 82%
c - 60.54 12 15 32 121 24782 2 882642 24221 1.6 14 9 1 8 42%   0 1591 245 82%
c - 61.57 12 15 32 122 25459 2 893643 25557 1.6 14 9 1 8 42%   0 1591 245 82%
c u 62.56 12 14 32 122 25949 2 904364 33069 1.6 14 9 1 8 42%   0 1591 245 82%
c v 62.90 12 14 32 122 25949 2 904364 31661 1.6 14 9 1 8 42%   0 1591 245 82%
c w 63.00 12 14 32 122 25949 2 904364 31193 1.6 14 9 1 8 42%   0 1591 245 82%
c - 63.04 12 14 32 123 25969 2 904689 23338 1.6 14 9 1 8 42%   0 1591 245 82%
c - 64.24 12 15 32 124 27071 2 915782 23867 1.6 14 9 1 8 42%   0 1591 245 82%
c } 64.85 12 14 33 124 27402 2 923896 30868 1.6 14 9 1 8 42%   0 1591 245 82%
c [ 64.85 12 14 33 124 27402 1 923896 30868 1.6 16 10 2 10 44%   0 1591 245 82%
c - 65.05 12 14 33 125 27404 1 926917 25069 1.6 16 10 2 10 44%   0 1591 245 82%
c - 65.70 12 14 33 126 27410 1 938098 25613 1.6 16 10 2 10 44%   0 1591 245 82%
c
c seconds   switched      rate          size/glue  tier1    binary      remaining
c        MB   reductions    conflicts         size   tier2    irredundant
c         level     restarts       redundant     glue    trail      variables
c
c B 65.84 12 14 33 126 27412 1 940712 27750 1.6 16 10 2 10 44%   0 1591 245 82%
c - 66.35 12 14 33 127 27416 1 949323 24051 1.6 16 10 2 10 44%   0 1591 245 82%
c - 67.04 12 14 33 128 27419 1 960595 22873 1.6 16 10 2 10 44%   0 1591 245 82%
c - 67.67 12 14 33 129 27426 1 971908 23766 1.6 16 10 2 10 44%   0 1591 245 82%
c - 68.30 12 14 33 130 27431 1 983267 23752 1.6 16 10 2 10 44%   1 1591 245 82%
c - 68.92 12 14 33 131 27432 1 994668 21926 1.6 16 10 2 10 44%   1 1591 245 82%
c - 69.59 12 14 33 132 27433 1 1006114 21700 1.6 16 10 2 10 44%   1 1591 245 82%
c u 70.10 12 14 33 132 27438 1 1012975 25770 1.6 16 10 2 10 44%   1 1591 245 82%
c v 70.39 12 14 33 132 27438 1 1012975 22964 1.6 16 10 2 10 44%   1 1591 245 82%
c w 70.48 12 14 33 132 27438 1 1012975 20886 1.6 16 10 2 10 44%   1 1591 245 82%
c o 70.48 12 14 33 132 27438 1 1012975 20886 1.6 16 10 2 10 44%   1 1591 245 82%
c - 70.74 12 14 33 133 27439 1 1017603 18082 1.6 16 10 2 10 44%   1 1591 245 82%
c - 71.31 12 14 33 134 27446 1 1029136 20187 1.6 16 10 2 10 44%   1 1591 245 82%
c W 71.39 12 14 33 134 27446 1 1030512 21403 1.6 16 10 2 10 44%   1 1591 245 82%
c ] 71.40 12 14 34 134 27447 1 1030635 21505 1.6 16 10 2 10 44%   1 1591 245 82%
c { 71.40 12 14 34 134 27447 2 1030635 21505 1.6 14 9 1 8 42%   1 1591 245 82%
c - 72.11 12 14 34 135 27561 2 1040711 23665 1.6 14 9 1 8 42%   2 1591 245 82%
c - 72.81 12 14 34 136 27623 2 1052330 26330 1.6 14 9 1 8 42%   4 1591 245 82%
c - 73.54 12 13 34 137 27726 2 1063992 29085 1.6 14 9 2 8 42%   5 1591 245 82%
c - 74.41 12 13 34 138 27921 2 1075696 30462 1.6 14 8 2 8 42%   5 1591 245 82%
c
c seconds   switched      rate           size/glue tier1   binary      remaining
c        MB   reductions     conflicts         size  tier2   irredundant
c         level     restarts        redundant    glue   trail      variables
c
c - 75.39 13 13 34 139 28103 2 1087444 30827 1.6 14 8 2 8 42%   5 1591 245 82%
c } 76.32 13 13 35 139 28336 2 1098782 40306 1.6 14 8 2 8 42%   8 1591 245 82%
c [ 76.32 13 14 35 139 28336 1 1098782 40306 1.6 16 10 2 10 44%   8 1591 245 82%
c - 76.35 13 14 35 140 28336 1 1099233 31571 1.6 16 10 2 10 44%   8 1591 245 82%
c - 77.11 13 14 35 141 28342 1 1111065 30647 1.6 16 10 2 10 44%   8 1591 245 82%
c - 77.90 13 14 35 142 28349 1 1122939 27716 1.6 16 10 2 10 44%   8 1591 245 82%
c I 78.13 13 14 35 142 28350 1 1126226 30401 1.6 16 10 2 10 44%   8 1591 245 82%
c u 78.49 13 14 35 142 28350 1 1128488 30359 1.6 16 10 2 10 44%   8 1591 245 82%
c v 78.77 13 14 35 142 28350 1 1128488 30019 1.6 16 10 2 10 44%   8 1591 245 82%
c w 78.86 13 14 35 142 28350 1 1128488 29701 1.6 16 10 2 10 44%   8 1591 245 82%
c t 80.33 17 14 35 142 28350 1 1128488 29701 1.6 16 10 2 10 44%   7 1591 245 82%
c - 80.67 17 14 35 143 28353 1 1134855 24900 1.6 16 10 2 10 44%   7 1591 245 82%
c - 81.30 17 14 35 144 28360 1 1146813 25700 1.6 16 10 2 10 44%   7 1591 245 82%
c - 82.00 17 14 35 145 28365 1 1158813 27026 1.6 16 10 2 10 44%   7 1591 245 82%
c - 82.76 17 14 35 146 28366 1 1170855 28521 1.6 16 10 2 10 44%   8 1591 245 82%
c s 82.95 17 14 35 146 28366 1 1173605 30831 1.6 16 10 2 10 44%   8 1589 245 82%
c o 82.96 17 14 35 146 28366 1 1173605 30831 1.6 16 10 2 10 44%   8 1589 245 82%
c ] 83.53 17 14 36 146 28367 1 1181621 37411 1.6 16 10 2 10 44%   8 1589 245 82%
c { 83.53 17 13 36 146 28367 2 1181621 37411 1.6 14 8 2 8 42%   8 1589 245 82%
c - 83.66 17 13 36 147 28420 2 1182939 29183 1.6 14 8 2 8 42%   8 1589 245 82%
c
c seconds   switched      rate           size/glue tier1   binary      remaining
c        MB   reductions     conflicts         size  tier2   irredundant
c         level     restarts        redundant    glue   trail      variables
c
c - 84.74 17 13 36 148 29146 2 1195063 30376 1.6 13 8 2 8 42%   9 1589 245 82%
c - 85.87 17 13 36 149 29902 2 1207229 31482 1.6 13 8 2 8 42%  11 1589 245 82%
c i 86.42 17 12 36 149 30284 2 1214821 37708 1.6 13 8 2 8 42%  20 1589 244 81%
c - 86.86 17 12 36 150 30704 2 1219436 24621 1.6 13 8 2 8 42%   3 1589 244 81%
c - 87.84 17 12 36 151 31588 2 1231683 28258 1.6 13 8 2 8 42%   3 1589 244 81%
c - 88.97 17 12 36 152 32452 2 1243972 30467 1.6 13 8 1 8 42%   3 1589 244 81%
c u 89.77 17 12 36 152 32684 2 1250911 33902 1.6 13 8 1 8 42%  16 1563 244 81%
c v 90.00 17 12 36 152 32684 2 1250911 32701 1.6 13 8 1 8 42%  16 1563 244 81%
c w 90.08 17 12 36 152 32684 2 1250911 32193 1.6 13 8 1 8 42%  16 1563 244 81%
c - 90.56 17 12 36 153 32869 2 1256303 28229 1.6 13 8 1 8 42%  16 1563 244 81%
c } 90.62 17 12 37 153 32900 2 1257178 28926 1.6 13 8 1 8 42%  17 1563 244 81%
c [ 90.62 17 14 37 153 32900 1 1257178 28926 1.6 16 10 2 10 44%  17 1563 244 81%
c B 90.62 17 14 37 153 32900 1 1257178 28926 1.6 16 10 2 10 44%  17 1563 244 81%
c - 91.35 17 14 37 154 32906 1 1268672 29122 1.6 16 10 2 10 44%  18 1563 244 81%
c - 92.16 17 13 37 155 32913 1 1281082 28640 1.6 15 10 2 10 44%  19 1563 244 81%
c i 92.46 17 13 37 155 32914 1 1286539 32464 1.6 15 9 2 10 44%  31 1563 243 81%
c i 92.57 17 13 37 155 32914 1 1288387 33821 1.6 15 9 2 10 44%  37 1563 241 80%
c - 92.87 15 13 37 156 32917 1 1293531 15142 1.6 15 9 2 10 44%  22 1563 241 80%
c i 92.92 15 13 37 156 32918 1 1294638 15944 1.6 15 9 2 10 44%  28 1563 239 80%
c i 92.96 15 13 37 156 32919 1 1295604 16620 1.6 15 9 2 10 44%  34 1563 238 79%
c
c seconds   switched      rate           size/glue tier1    binary      remaining
c        MB   reductions     conflicts         size  tier2    irredundant
c         level     restarts        redundant    glue    trail      variables
c
c i 93.04 15 13 37 156 32920 1 1297162 17800 1.6 15 9 2 10 44%  40 1563 237 79%
c i 93.08 15 13 37 156 32920 1 1297962 18431 1.6 15 9 2 10 44%  49 1563 236 79%
c i 93.09 15 13 37 156 32921 1 1298247 18611 1.6 15 9 2 10 44%  55 1563 235 78%
c i 93.10 15 13 37 156 32921 1 1298362 18685 1.6 15 9 2 10 44%  60 1563 234 78%
c ] 93.10 15 13 37 156 32921 1 1298422 18717 1.6 15 9 2 10 44%  62 1563 134 45%
c 0 93.10 15 12 37 156 32921 2 1298422 18717 1.6 13 8 1 8 42%  62 1563 134 45%
c
c ---- [ result ] ------------------------------------------------------------
c
s UNSATISFIABLE
c
c ---- [ profiling ] ---------------------------------------------------------
c
c          83.33   89.51 %  search
c          42.29   45.42 %  focused
c          41.05   44.09 %  stable
c           9.72   10.44 %  simplify
c           9.36   10.05 %  probe
c           5.91    6.35 %  vivify
c           3.31    3.56 %  sweep
c           0.69    0.74 %  reduce
c           0.38    0.41 %  walking
c           0.11    0.12 %  substitute
c           0.05    0.05 %  preprocess
c           0.03    0.03 %  eliminate
c           0.01    0.01 %  factor
c           0.01    0.01 %  congruence
c           0.00    0.01 %  transitive
c           0.00    0.00 %  subsume
c           0.00    0.00 %  fastel
c           0.00    0.00 %  backbone
c           0.00    0.00 %  parse
c           0.00    0.00 %  lucky
c =============================================
c          93.10  100.00 %  total
c
c ---- [ statistics ] --------------------------------------------------------
c
c conflicts:                          1298422            13945.85 per second
c decisions:                          2032511                1.57 per conflict
c eliminated:                              55               18 %  variables
c fast_eliminated:                         12               22 %  eliminated
c iterations:                              10                3 %  variables
c propagations:                      56766155           609703    per second
c reductions:                             156             8323    interval
c reordered:                               15            86561    interval
c rephased:                                28            46372    interval
c restarts:                             32921               39    interval
c strengthened:                             3                0 %  checks
c subsumed:                                 3                0 %  checks
c switched:                                37            35092    interval
c vivified:                             74690               65 %  checks
c walks:                                    9           144269    interval
c
c ---- [ glue usage ] --------------------------------------------------------
c
c focused glue 1   used 1314593 clauses 50.04% accumulated 50.04% tier1
c focused glue 2   used  476600 clauses 18.14% accumulated 68.18%
c focused glue 3-6 used  464542 clauses 17.68% accumulated 85.86%
c focused glue 7   used   80303 clauses  3.06% accumulated 88.92%
c focused glue 8   used   75913 clauses  2.89% accumulated 91.81% tier2
c
c stable glue 2   used 785631 clauses 17.98% accumulated 59.30% tier1
c stable glue 3   used 378737 clauses  8.67% accumulated 67.97%
c stable glue 4-8 used 786621 clauses 18.01% accumulated 85.98%
c stable glue 9   used 121565 clauses  2.78% accumulated 88.76%
c stable glue 10  used 111475 clauses  2.55% accumulated 91.31% tier2
c
c ---- [ resources ] ---------------------------------------------------------
c
c maximum-resident-set-size:         17367040 bytes         17 MB
c process-time:                         1m 33s              93.10 seconds
c
c ---- [ shutting down ] -----------------------------------------------------
c
c exit 20
